% Auto-generated by scripts/generate_dzn.py
% problem_type   = regex
% instance       = regex_54
% source_json    = instances_json/2_high_blowup/regex_54.json
% blowup         = 62.76923076923077
% representation = DFA

mode = 0;

var_count = 28;
Q = 816;
S = 3;
q0 = 1;
F = {466, 467, 468, 469, 470, 471, 472, 473, 474, 475, 476, 477, 478, 479, 480, 481, 482, 483, 484, 485, 486, 487, 488, 489, 490, 491, 492, 493, 494, 495, 496, 497, 498, 499, 500, 501, 502, 503, 504, 505, 506, 507, 508, 509, 510, 511, 512, 513, 514, 515, 516, 517, 518, 519, 520, 521, 522, 523, 524, 525, 526, 527, 528, 529, 530, 531, 532, 533, 534, 535, 536, 537, 538, 539, 540, 541, 542, 543, 544, 545, 546, 547, 548, 549, 550, 551, 552, 553, 554, 555, 556, 557, 558, 559, 560, 561, 562, 563, 564, 565, 566, 567, 568, 569, 570, 571, 572, 573, 574, 575, 576, 577, 578, 579, 580, 581, 582, 583, 584, 585, 586, 587, 588, 589, 590, 591, 592, 593, 594, 595, 596, 597, 598, 599, 600, 601, 602, 603, 604, 605, 606, 607, 608, 609, 610, 611, 612, 613, 614, 615, 616, 617, 618, 619, 620, 621, 622, 623, 624, 625, 626, 627, 628, 629, 630, 631, 632, 633, 634, 635, 636, 637, 638, 639, 640, 641, 642, 643, 644, 645, 646, 647, 648, 649, 650, 651, 652, 653, 654, 655, 656, 657, 658, 659, 660, 661, 662, 663, 664, 665, 666, 667, 668, 669, 670, 671, 672, 673, 674, 675, 676, 677, 678, 679, 680, 681, 682, 683, 684, 685, 686, 687, 688, 689, 690, 691, 692, 693, 694, 695, 696, 697, 698, 699, 700, 701, 702, 703, 704, 705, 706, 707, 708, 709, 710, 711, 712, 713, 714, 715, 716, 717, 718, 719, 720, 721, 722, 723, 724, 725, 726, 727, 728, 729, 730, 731, 732, 733, 734, 735, 736, 737, 738, 739, 740, 741, 742, 743, 744, 745, 746, 747, 748, 749, 750, 751, 752, 753, 754, 755, 756, 757, 758, 759, 760, 761, 762, 763, 764, 765, 766, 767, 768, 769, 770, 771, 772, 773, 774, 775, 776, 777, 778, 779, 780, 781, 782, 783, 784, 785, 786, 787, 788, 789, 790, 791, 792, 793, 794, 795, 796, 797, 798, 799, 800, 801, 802, 803, 804, 805, 806, 807, 808, 809, 810, 811, 812, 813, 814, 815, 816};
d_dfa = array2d(1..816, 1..3, [
  1, 2, 1,
  1, 3, 1,
  4, 5, 4,
  6, 7, 6,
  8, 9, 8,
  10, 11, 10,
  10, 12, 10,
  13, 14, 13,
  15, 16, 15,
  17, 18, 17,
  17, 19, 17,
  20, 21, 20,
  22, 23, 22,
  22, 24, 22,
  25, 26, 25,
  27, 28, 27,
  29, 30, 29,
  29, 31, 29,
  32, 33, 32,
  34, 35, 34,
  36, 37, 36,
  38, 39, 38,
  38, 40, 38,
  41, 42, 41,
  43, 44, 43,
  43, 45, 43,
  46, 47, 46,
  48, 49, 48,
  50, 51, 50,
  50, 52, 50,
  53, 54, 53,
  55, 56, 55,
  57, 58, 57,
  59, 60, 59,
  59, 61, 59,
  62, 63, 62,
  64, 65, 64,
  66, 67, 66,
  66, 68, 66,
  69, 70, 69,
  71, 72, 71,
  73, 74, 73,
  75, 76, 75,
  75, 77, 75,
  78, 79, 78,
  80, 81, 80,
  80, 82, 80,
  83, 84, 83,
  85, 86, 85,
  87, 88, 87,
  87, 89, 87,
  90, 91, 90,
  92, 93, 92,
  94, 95, 94,
  96, 97, 96,
  96, 98, 96,
  99, 100, 99,
  101, 102, 101,
  103, 104, 103,
  103, 105, 103,
  106, 107, 106,
  108, 109, 108,
  108, 110, 108,
  111, 112, 111,
  113, 114, 113,
  115, 116, 115,
  115, 117, 115,
  118, 119, 118,
  120, 121, 120,
  122, 123, 122,
  124, 125, 124,
  124, 126, 124,
  127, 128, 127,
  129, 130, 129,
  131, 132, 131,
  131, 133, 131,
  134, 135, 134,
  136, 137, 136,
  138, 139, 138,
  140, 141, 140,
  140, 142, 140,
  143, 144, 143,
  145, 146, 145,
  145, 147, 145,
  148, 149, 148,
  150, 151, 150,
  152, 153, 152,
  152, 154, 152,
  155, 156, 155,
  157, 158, 157,
  159, 160, 159,
  161, 162, 161,
  161, 163, 161,
  164, 165, 164,
  166, 167, 166,
  168, 169, 168,
  168, 170, 168,
  171, 172, 171,
  173, 174, 173,
  173, 175, 173,
  176, 177, 176,
  178, 179, 178,
  180, 181, 180,
  180, 182, 180,
  183, 184, 183,
  185, 186, 185,
  187, 188, 187,
  189, 190, 189,
  189, 191, 189,
  192, 193, 192,
  194, 195, 194,
  194, 196, 194,
  197, 198, 197,
  199, 200, 199,
  201, 202, 201,
  201, 203, 201,
  204, 205, 204,
  206, 207, 206,
  208, 209, 208,
  210, 211, 210,
  210, 212, 210,
  213, 214, 213,
  215, 216, 215,
  217, 218, 217,
  217, 219, 217,
  220, 221, 220,
  222, 223, 222,
  222, 224, 222,
  225, 226, 225,
  227, 228, 227,
  229, 230, 229,
  229, 231, 229,
  232, 233, 232,
  234, 235, 234,
  236, 237, 236,
  238, 239, 238,
  238, 240, 238,
  241, 242, 241,
  243, 244, 243,
  245, 246, 245,
  245, 247, 245,
  248, 249, 248,
  250, 251, 250,
  252, 253, 252,
  254, 255, 254,
  254, 256, 254,
  257, 258, 257,
  259, 260, 259,
  259, 261, 259,
  262, 263, 262,
  264, 265, 264,
  266, 267, 266,
  266, 268, 266,
  269, 270, 269,
  271, 272, 271,
  273, 274, 273,
  275, 276, 275,
  275, 277, 275,
  278, 279, 278,
  280, 281, 280,
  282, 283, 282,
  282, 284, 282,
  285, 286, 285,
  287, 288, 287,
  287, 289, 287,
  290, 291, 290,
  292, 293, 292,
  294, 295, 294,
  294, 296, 294,
  297, 298, 297,
  299, 300, 299,
  301, 302, 301,
  303, 304, 303,
  303, 305, 303,
  306, 307, 306,
  308, 309, 308,
  308, 310, 308,
  311, 312, 311,
  313, 314, 313,
  315, 316, 315,
  315, 317, 315,
  318, 319, 318,
  320, 321, 320,
  322, 323, 322,
  324, 325, 324,
  324, 326, 324,
  327, 328, 327,
  329, 330, 329,
  331, 332, 331,
  331, 333, 331,
  334, 335, 334,
  336, 337, 336,
  338, 339, 338,
  340, 341, 340,
  340, 342, 340,
  343, 344, 343,
  345, 346, 345,
  345, 347, 345,
  348, 349, 348,
  350, 351, 350,
  352, 353, 352,
  352, 354, 352,
  355, 356, 355,
  357, 358, 357,
  359, 360, 359,
  361, 362, 361,
  361, 363, 361,
  364, 365, 364,
  366, 367, 366,
  368, 369, 368,
  368, 370, 368,
  371, 372, 371,
  373, 374, 373,
  373, 375, 373,
  376, 377, 376,
  378, 379, 378,
  380, 381, 380,
  380, 382, 380,
  383, 384, 383,
  385, 386, 385,
  387, 388, 387,
  389, 390, 389,
  389, 391, 389,
  392, 393, 392,
  394, 395, 394,
  394, 396, 394,
  397, 398, 397,
  399, 400, 399,
  401, 402, 401,
  401, 403, 401,
  404, 405, 404,
  406, 407, 406,
  408, 409, 408,
  410, 411, 410,
  410, 412, 410,
  413, 414, 413,
  415, 416, 415,
  417, 418, 417,
  417, 419, 417,
  420, 421, 420,
  422, 423, 422,
  422, 424, 422,
  425, 426, 425,
  427, 428, 427,
  429, 430, 429,
  429, 431, 429,
  432, 433, 432,
  434, 435, 434,
  436, 437, 436,
  438, 439, 438,
  438, 440, 438,
  441, 442, 441,
  443, 444, 443,
  445, 446, 445,
  445, 447, 445,
  448, 449, 448,
  450, 451, 450,
  452, 453, 452,
  454, 455, 454,
  454, 456, 454,
  457, 458, 457,
  459, 460, 459,
  459, 461, 459,
  462, 463, 462,
  464, 465, 464,
  466, 467, 466,
  466, 468, 466,
  469, 470, 469,
  471, 472, 471,
  473, 474, 473,
  475, 476, 475,
  475, 477, 475,
  478, 479, 478,
  480, 481, 480,
  482, 483, 482,
  482, 484, 482,
  485, 486, 485,
  487, 488, 487,
  487, 489, 487,
  490, 491, 490,
  492, 493, 492,
  494, 495, 494,
  494, 496, 494,
  497, 498, 497,
  499, 500, 499,
  501, 502, 501,
  503, 504, 503,
  503, 505, 503,
  506, 507, 506,
  508, 509, 508,
  508, 510, 508,
  511, 512, 511,
  513, 514, 513,
  515, 516, 515,
  515, 517, 515,
  518, 519, 518,
  520, 521, 520,
  522, 523, 522,
  524, 525, 524,
  524, 526, 524,
  527, 528, 527,
  529, 530, 529,
  531, 532, 531,
  531, 533, 531,
  534, 535, 534,
  536, 537, 536,
  538, 539, 538,
  540, 541, 540,
  540, 542, 540,
  543, 544, 543,
  545, 546, 545,
  545, 547, 545,
  548, 549, 548,
  550, 551, 550,
  552, 553, 552,
  552, 554, 552,
  555, 556, 555,
  557, 558, 557,
  559, 560, 559,
  561, 562, 561,
  561, 563, 561,
  564, 565, 564,
  566, 567, 566,
  568, 569, 568,
  568, 570, 568,
  571, 572, 571,
  573, 574, 573,
  573, 575, 573,
  576, 577, 576,
  578, 579, 578,
  580, 581, 580,
  580, 582, 580,
  583, 584, 583,
  585, 586, 585,
  587, 588, 587,
  589, 590, 589,
  589, 591, 589,
  592, 593, 592,
  594, 595, 594,
  596, 597, 596,
  596, 598, 596,
  599, 600, 599,
  601, 602, 601,
  603, 604, 603,
  605, 606, 605,
  605, 607, 605,
  608, 609, 608,
  610, 611, 610,
  610, 612, 610,
  613, 614, 613,
  615, 616, 615,
  617, 618, 617,
  617, 619, 617,
  620, 621, 620,
  622, 623, 622,
  624, 625, 624,
  626, 627, 626,
  626, 628, 626,
  629, 630, 629,
  631, 632, 631,
  633, 634, 633,
  633, 635, 633,
  636, 637, 636,
  638, 639, 638,
  638, 640, 638,
  641, 642, 641,
  643, 644, 643,
  645, 646, 645,
  645, 647, 645,
  648, 649, 648,
  650, 651, 650,
  652, 653, 652,
  654, 655, 654,
  654, 656, 654,
  657, 658, 657,
  659, 660, 659,
  659, 661, 659,
  662, 663, 662,
  664, 665, 664,
  666, 667, 666,
  666, 668, 666,
  669, 670, 669,
  671, 672, 671,
  673, 674, 673,
  675, 676, 675,
  675, 677, 675,
  678, 679, 678,
  680, 681, 680,
  682, 683, 682,
  682, 684, 682,
  685, 686, 685,
  687, 688, 687,
  689, 690, 689,
  691, 692, 691,
  691, 693, 691,
  694, 695, 694,
  696, 697, 696,
  696, 698, 696,
  699, 700, 699,
  701, 702, 701,
  703, 704, 703,
  703, 705, 703,
  706, 707, 706,
  708, 709, 708,
  710, 711, 710,
  712, 713, 712,
  712, 714, 712,
  715, 716, 715,
  717, 718, 717,
  719, 720, 719,
  719, 721, 719,
  722, 723, 722,
  724, 725, 724,
  724, 726, 724,
  727, 728, 727,
  729, 730, 729,
  731, 732, 731,
  731, 733, 731,
  734, 735, 734,
  736, 737, 736,
  738, 739, 738,
  740, 741, 740,
  740, 742, 740,
  743, 744, 743,
  745, 746, 745,
  745, 747, 745,
  748, 749, 748,
  750, 751, 750,
  752, 753, 752,
  752, 754, 752,
  755, 756, 755,
  757, 758, 757,
  759, 760, 759,
  761, 762, 761,
  761, 763, 761,
  764, 765, 764,
  766, 767, 766,
  768, 769, 768,
  768, 770, 768,
  771, 772, 771,
  773, 774, 773,
  773, 775, 773,
  776, 777, 776,
  778, 779, 778,
  780, 781, 780,
  780, 782, 780,
  783, 784, 783,
  785, 786, 785,
  787, 788, 787,
  789, 790, 789,
  789, 791, 789,
  792, 793, 792,
  794, 795, 794,
  796, 797, 796,
  796, 798, 796,
  799, 800, 799,
  801, 802, 801,
  803, 804, 803,
  805, 806, 805,
  805, 807, 805,
  808, 809, 808,
  810, 811, 810,
  810, 812, 810,
  813, 814, 813,
  815, 816, 815,
  1, 2, 1,
  1, 3, 1,
  4, 5, 4,
  6, 7, 6,
  8, 9, 8,
  10, 11, 10,
  10, 12, 10,
  13, 14, 13,
  15, 16, 15,
  17, 18, 17,
  17, 19, 17,
  20, 21, 20,
  22, 23, 22,
  22, 24, 22,
  25, 26, 25,
  27, 28, 27,
  29, 30, 29,
  29, 31, 29,
  32, 33, 32,
  34, 35, 34,
  36, 37, 36,
  38, 39, 38,
  38, 40, 38,
  41, 42, 41,
  43, 44, 43,
  43, 45, 43,
  46, 47, 46,
  48, 49, 48,
  50, 51, 50,
  50, 52, 50,
  53, 54, 53,
  55, 56, 55,
  57, 58, 57,
  59, 60, 59,
  59, 61, 59,
  62, 63, 62,
  64, 65, 64,
  66, 67, 66,
  66, 68, 66,
  69, 70, 69,
  71, 72, 71,
  73, 74, 73,
  75, 76, 75,
  75, 77, 75,
  78, 79, 78,
  80, 81, 80,
  80, 82, 80,
  83, 84, 83,
  85, 86, 85,
  87, 88, 87,
  87, 89, 87,
  90, 91, 90,
  92, 93, 92,
  94, 95, 94,
  96, 97, 96,
  96, 98, 96,
  99, 100, 99,
  101, 102, 101,
  103, 104, 103,
  103, 105, 103,
  106, 107, 106,
  108, 109, 108,
  108, 110, 108,
  111, 112, 111,
  113, 114, 113,
  115, 116, 115,
  115, 117, 115,
  118, 119, 118,
  120, 121, 120,
  122, 123, 122,
  124, 125, 124,
  124, 126, 124,
  127, 128, 127,
  129, 130, 129,
  131, 132, 131,
  131, 133, 131,
  134, 135, 134,
  136, 137, 136,
  138, 139, 138,
  140, 141, 140,
  140, 142, 140,
  143, 144, 143,
  145, 146, 145,
  145, 147, 145,
  148, 149, 148,
  150, 151, 150,
  152, 153, 152,
  152, 154, 152,
  155, 156, 155,
  157, 158, 157,
  159, 160, 159,
  161, 162, 161,
  161, 163, 161,
  164, 165, 164,
  166, 167, 166,
  168, 169, 168,
  168, 170, 168,
  171, 172, 171,
  173, 174, 173,
  173, 175, 173,
  176, 177, 176,
  178, 179, 178,
  180, 181, 180,
  180, 182, 180,
  183, 184, 183,
  185, 186, 185,
  187, 188, 187,
  189, 190, 189,
  189, 191, 189,
  192, 193, 192,
  194, 195, 194,
  194, 196, 194,
  197, 198, 197,
  199, 200, 199,
  201, 202, 201,
  201, 203, 201,
  204, 205, 204,
  206, 207, 206,
  208, 209, 208,
  210, 211, 210,
  210, 212, 210,
  213, 214, 213,
  215, 216, 215,
  217, 218, 217,
  217, 219, 217,
  220, 221, 220,
  222, 223, 222,
  222, 224, 222,
  225, 226, 225,
  227, 228, 227,
  229, 230, 229,
  229, 231, 229,
  232, 233, 232,
  234, 235, 234,
  236, 237, 236,
  238, 239, 238,
  238, 240, 238,
  241, 242, 241,
  243, 244, 243,
  245, 246, 245,
  245, 247, 245,
  248, 249, 248,
  250, 251, 250,
  252, 253, 252,
  254, 255, 254,
  254, 256, 254,
  257, 258, 257,
  259, 260, 259,
  259, 261, 259,
  262, 263, 262,
  264, 265, 264,
  466, 467, 466,
  466, 468, 466,
  469, 470, 469,
  471, 472, 471,
  473, 474, 473,
  475, 476, 475,
  475, 477, 475,
  478, 479, 478,
  480, 481, 480,
  482, 483, 482,
  482, 484, 482,
  485, 486, 485,
  487, 488, 487,
  487, 489, 487,
  490, 491, 490,
  492, 493, 492,
  494, 495, 494,
  494, 496, 494,
  497, 498, 497,
  499, 500, 499,
  501, 502, 501,
  503, 504, 503,
  503, 505, 503,
  506, 507, 506,
  508, 509, 508,
  508, 510, 508,
  511, 512, 511,
  513, 514, 513,
  515, 516, 515,
  515, 517, 515,
  518, 519, 518,
  520, 521, 520,
  522, 523, 522,
  524, 525, 524,
  524, 526, 524,
  527, 528, 527,
  529, 530, 529,
  531, 532, 531,
  531, 533, 531,
  534, 535, 534,
  536, 537, 536,
  538, 539, 538,
  540, 541, 540,
  540, 542, 540,
  543, 544, 543,
  545, 546, 545,
  545, 547, 545,
  548, 549, 548,
  550, 551, 550,
  552, 553, 552,
  552, 554, 552,
  555, 556, 555,
  557, 558, 557,
  559, 560, 559,
  561, 562, 561,
  561, 563, 561,
  564, 565, 564,
  566, 567, 566,
  568, 569, 568,
  568, 570, 568,
  571, 572, 571,
  573, 574, 573,
  573, 575, 573,
  576, 577, 576,
  578, 579, 578,
  580, 581, 580,
  580, 582, 580,
  583, 584, 583,
  585, 586, 585,
  587, 588, 587,
  589, 590, 589,
  589, 591, 589,
  592, 593, 592,
  594, 595, 594,
  596, 597, 596,
  596, 598, 596,
  599, 600, 599,
  601, 602, 601,
  603, 604, 603,
  605, 606, 605,
  605, 607, 605,
  608, 609, 608,
  610, 611, 610,
  610, 612, 610,
  613, 614, 613,
  615, 616, 615,
  617, 618, 617,
  617, 619, 617,
  620, 621, 620,
  622, 623, 622,
  624, 625, 624,
  626, 627, 626,
  626, 628, 626,
  629, 630, 629,
  631, 632, 631,
  633, 634, 633,
  633, 635, 633,
  636, 637, 636,
  638, 639, 638,
  638, 640, 638,
  641, 642, 641,
  643, 644, 643,
  645, 646, 645,
  645, 647, 645,
  648, 649, 648,
  650, 651, 650,
  652, 653, 652,
  654, 655, 654,
  654, 656, 654,
  657, 658, 657,
  659, 660, 659,
  659, 661, 659,
  662, 663, 662,
  664, 665, 664,
  666, 667, 666,
  666, 668, 666,
  669, 670, 669,
  671, 672, 671,
  673, 674, 673,
  675, 676, 675,
  675, 677, 675,
  678, 679, 678,
  680, 681, 680,
  682, 683, 682,
  682, 684, 682,
  685, 686, 685,
  687, 688, 687,
  689, 690, 689,
  691, 692, 691,
  691, 693, 691,
  694, 695, 694,
  696, 697, 696,
  696, 698, 696,
  699, 700, 699,
  701, 702, 701,
  703, 704, 703,
  703, 705, 703,
  706, 707, 706,
  708, 709, 708,
  710, 711, 710,
  712, 713, 712,
  712, 714, 712,
  715, 716, 715,
  717, 718, 717,
  719, 720, 719,
  719, 721, 719,
  722, 723, 722,
  724, 725, 724,
  724, 726, 724,
  727, 728, 727,
  729, 730, 729,
  731, 732, 731,
  731, 733, 731,
  734, 735, 734,
  736, 737, 736,
  738, 739, 738,
  740, 741, 740,
  740, 742, 740,
  743, 744, 743,
  745, 746, 745,
  745, 747, 745,
  748, 749, 748,
  750, 751, 750,
  752, 753, 752,
  752, 754, 752,
  755, 756, 755,
  757, 758, 757,
  759, 760, 759,
  761, 762, 761,
  761, 763, 761,
  764, 765, 764,
  766, 767, 766,
  768, 769, 768,
  768, 770, 768,
  771, 772, 771,
  773, 774, 773,
  773, 775, 773,
  776, 777, 776,
  778, 779, 778,
  780, 781, 780,
  780, 782, 780,
  783, 784, 783,
  785, 786, 785,
  787, 788, 787,
  789, 790, 789,
  789, 791, 789,
  792, 793, 792,
  794, 795, 794,
  796, 797, 796,
  796, 798, 796,
  799, 800, 799,
  801, 802, 801,
  803, 804, 803,
  805, 806, 805,
  805, 807, 805,
  808, 809, 808,
  810, 811, 810,
  810, 812, 810,
  813, 814, 813,
  815, 816, 815
]);
d_nfa = array2d(1..816, 1..3, [
  {}, {}, {},
  {}, {}, {},
  {}, {}, {},
  {}, {}, {},
  {}, {}, {},
  {}, {}, {},
  {}, {}, {},
  {}, {}, {},
  {}, {}, {},
  {}, {}, {},
  {}, {}, {},
  {}, {}, {},
  {}, {}, {},
  {}, {}, {},
  {}, {}, {},
  {}, {}, {},
  {}, {}, {},
  {}, {}, {},
  {}, {}, {},
  {}, {}, {},
  {}, {}, {},
  {}, {}, {},
  {}, {}, {},
  {}, {}, {},
  {}, {}, {},
  {}, {}, {},
  {}, {}, {},
  {}, {}, {},
  {}, {}, {},
  {}, {}, {},
  {}, {}, {},
  {}, {}, {},
  {}, {}, {},
  {}, {}, {},
  {}, {}, {},
  {}, {}, {},
  {}, {}, {},
  {}, {}, {},
  {}, {}, {},
  {}, {}, {},
  {}, {}, {},
  {}, {}, {},
  {}, {}, {},
  {}, {}, {},
  {}, {}, {},
  {}, {}, {},
  {}, {}, {},
  {}, {}, {},
  {}, {}, {},
  {}, {}, {},
  {}, {}, {},
  {}, {}, {},
  {}, {}, {},
  {}, {}, {},
  {}, {}, {},
  {}, {}, {},
  {}, {}, {},
  {}, {}, {},
  {}, {}, {},
  {}, {}, {},
  {}, {}, {},
  {}, {}, {},
  {}, {}, {},
  {}, {}, {},
  {}, {}, {},
  {}, {}, {},
  {}, {}, {},
  {}, {}, {},
  {}, {}, {},
  {}, {}, {},
  {}, {}, {},
  {}, {}, {},
  {}, {}, {},
  {}, {}, {},
  {}, {}, {},
  {}, {}, {},
  {}, {}, {},
  {}, {}, {},
  {}, {}, {},
  {}, {}, {},
  {}, {}, {},
  {}, {}, {},
  {}, {}, {},
  {}, {}, {},
  {}, {}, {},
  {}, {}, {},
  {}, {}, {},
  {}, {}, {},
  {}, {}, {},
  {}, {}, {},
  {}, {}, {},
  {}, {}, {},
  {}, {}, {},
  {}, {}, {},
  {}, {}, {},
  {}, {}, {},
  {}, {}, {},
  {}, {}, {},
  {}, {}, {},
  {}, {}, {},
  {}, {}, {},
  {}, {}, {},
  {}, {}, {},
  {}, {}, {},
  {}, {}, {},
  {}, {}, {},
  {}, {}, {},
  {}, {}, {},
  {}, {}, {},
  {}, {}, {},
  {}, {}, {},
  {}, {}, {},
  {}, {}, {},
  {}, {}, {},
  {}, {}, {},
  {}, {}, {},
  {}, {}, {},
  {}, {}, {},
  {}, {}, {},
  {}, {}, {},
  {}, {}, {},
  {}, {}, {},
  {}, {}, {},
  {}, {}, {},
  {}, {}, {},
  {}, {}, {},
  {}, {}, {},
  {}, {}, {},
  {}, {}, {},
  {}, {}, {},
  {}, {}, {},
  {}, {}, {},
  {}, {}, {},
  {}, {}, {},
  {}, {}, {},
  {}, {}, {},
  {}, {}, {},
  {}, {}, {},
  {}, {}, {},
  {}, {}, {},
  {}, {}, {},
  {}, {}, {},
  {}, {}, {},
  {}, {}, {},
  {}, {}, {},
  {}, {}, {},
  {}, {}, {},
  {}, {}, {},
  {}, {}, {},
  {}, {}, {},
  {}, {}, {},
  {}, {}, {},
  {}, {}, {},
  {}, {}, {},
  {}, {}, {},
  {}, {}, {},
  {}, {}, {},
  {}, {}, {},
  {}, {}, {},
  {}, {}, {},
  {}, {}, {},
  {}, {}, {},
  {}, {}, {},
  {}, {}, {},
  {}, {}, {},
  {}, {}, {},
  {}, {}, {},
  {}, {}, {},
  {}, {}, {},
  {}, {}, {},
  {}, {}, {},
  {}, {}, {},
  {}, {}, {},
  {}, {}, {},
  {}, {}, {},
  {}, {}, {},
  {}, {}, {},
  {}, {}, {},
  {}, {}, {},
  {}, {}, {},
  {}, {}, {},
  {}, {}, {},
  {}, {}, {},
  {}, {}, {},
  {}, {}, {},
  {}, {}, {},
  {}, {}, {},
  {}, {}, {},
  {}, {}, {},
  {}, {}, {},
  {}, {}, {},
  {}, {}, {},
  {}, {}, {},
  {}, {}, {},
  {}, {}, {},
  {}, {}, {},
  {}, {}, {},
  {}, {}, {},
  {}, {}, {},
  {}, {}, {},
  {}, {}, {},
  {}, {}, {},
  {}, {}, {},
  {}, {}, {},
  {}, {}, {},
  {}, {}, {},
  {}, {}, {},
  {}, {}, {},
  {}, {}, {},
  {}, {}, {},
  {}, {}, {},
  {}, {}, {},
  {}, {}, {},
  {}, {}, {},
  {}, {}, {},
  {}, {}, {},
  {}, {}, {},
  {}, {}, {},
  {}, {}, {},
  {}, {}, {},
  {}, {}, {},
  {}, {}, {},
  {}, {}, {},
  {}, {}, {},
  {}, {}, {},
  {}, {}, {},
  {}, {}, {},
  {}, {}, {},
  {}, {}, {},
  {}, {}, {},
  {}, {}, {},
  {}, {}, {},
  {}, {}, {},
  {}, {}, {},
  {}, {}, {},
  {}, {}, {},
  {}, {}, {},
  {}, {}, {},
  {}, {}, {},
  {}, {}, {},
  {}, {}, {},
  {}, {}, {},
  {}, {}, {},
  {}, {}, {},
  {}, {}, {},
  {}, {}, {},
  {}, {}, {},
  {}, {}, {},
  {}, {}, {},
  {}, {}, {},
  {}, {}, {},
  {}, {}, {},
  {}, {}, {},
  {}, {}, {},
  {}, {}, {},
  {}, {}, {},
  {}, {}, {},
  {}, {}, {},
  {}, {}, {},
  {}, {}, {},
  {}, {}, {},
  {}, {}, {},
  {}, {}, {},
  {}, {}, {},
  {}, {}, {},
  {}, {}, {},
  {}, {}, {},
  {}, {}, {},
  {}, {}, {},
  {}, {}, {},
  {}, {}, {},
  {}, {}, {},
  {}, {}, {},
  {}, {}, {},
  {}, {}, {},
  {}, {}, {},
  {}, {}, {},
  {}, {}, {},
  {}, {}, {},
  {}, {}, {},
  {}, {}, {},
  {}, {}, {},
  {}, {}, {},
  {}, {}, {},
  {}, {}, {},
  {}, {}, {},
  {}, {}, {},
  {}, {}, {},
  {}, {}, {},
  {}, {}, {},
  {}, {}, {},
  {}, {}, {},
  {}, {}, {},
  {}, {}, {},
  {}, {}, {},
  {}, {}, {},
  {}, {}, {},
  {}, {}, {},
  {}, {}, {},
  {}, {}, {},
  {}, {}, {},
  {}, {}, {},
  {}, {}, {},
  {}, {}, {},
  {}, {}, {},
  {}, {}, {},
  {}, {}, {},
  {}, {}, {},
  {}, {}, {},
  {}, {}, {},
  {}, {}, {},
  {}, {}, {},
  {}, {}, {},
  {}, {}, {},
  {}, {}, {},
  {}, {}, {},
  {}, {}, {},
  {}, {}, {},
  {}, {}, {},
  {}, {}, {},
  {}, {}, {},
  {}, {}, {},
  {}, {}, {},
  {}, {}, {},
  {}, {}, {},
  {}, {}, {},
  {}, {}, {},
  {}, {}, {},
  {}, {}, {},
  {}, {}, {},
  {}, {}, {},
  {}, {}, {},
  {}, {}, {},
  {}, {}, {},
  {}, {}, {},
  {}, {}, {},
  {}, {}, {},
  {}, {}, {},
  {}, {}, {},
  {}, {}, {},
  {}, {}, {},
  {}, {}, {},
  {}, {}, {},
  {}, {}, {},
  {}, {}, {},
  {}, {}, {},
  {}, {}, {},
  {}, {}, {},
  {}, {}, {},
  {}, {}, {},
  {}, {}, {},
  {}, {}, {},
  {}, {}, {},
  {}, {}, {},
  {}, {}, {},
  {}, {}, {},
  {}, {}, {},
  {}, {}, {},
  {}, {}, {},
  {}, {}, {},
  {}, {}, {},
  {}, {}, {},
  {}, {}, {},
  {}, {}, {},
  {}, {}, {},
  {}, {}, {},
  {}, {}, {},
  {}, {}, {},
  {}, {}, {},
  {}, {}, {},
  {}, {}, {},
  {}, {}, {},
  {}, {}, {},
  {}, {}, {},
  {}, {}, {},
  {}, {}, {},
  {}, {}, {},
  {}, {}, {},
  {}, {}, {},
  {}, {}, {},
  {}, {}, {},
  {}, {}, {},
  {}, {}, {},
  {}, {}, {},
  {}, {}, {},
  {}, {}, {},
  {}, {}, {},
  {}, {}, {},
  {}, {}, {},
  {}, {}, {},
  {}, {}, {},
  {}, {}, {},
  {}, {}, {},
  {}, {}, {},
  {}, {}, {},
  {}, {}, {},
  {}, {}, {},
  {}, {}, {},
  {}, {}, {},
  {}, {}, {},
  {}, {}, {},
  {}, {}, {},
  {}, {}, {},
  {}, {}, {},
  {}, {}, {},
  {}, {}, {},
  {}, {}, {},
  {}, {}, {},
  {}, {}, {},
  {}, {}, {},
  {}, {}, {},
  {}, {}, {},
  {}, {}, {},
  {}, {}, {},
  {}, {}, {},
  {}, {}, {},
  {}, {}, {},
  {}, {}, {},
  {}, {}, {},
  {}, {}, {},
  {}, {}, {},
  {}, {}, {},
  {}, {}, {},
  {}, {}, {},
  {}, {}, {},
  {}, {}, {},
  {}, {}, {},
  {}, {}, {},
  {}, {}, {},
  {}, {}, {},
  {}, {}, {},
  {}, {}, {},
  {}, {}, {},
  {}, {}, {},
  {}, {}, {},
  {}, {}, {},
  {}, {}, {},
  {}, {}, {},
  {}, {}, {},
  {}, {}, {},
  {}, {}, {},
  {}, {}, {},
  {}, {}, {},
  {}, {}, {},
  {}, {}, {},
  {}, {}, {},
  {}, {}, {},
  {}, {}, {},
  {}, {}, {},
  {}, {}, {},
  {}, {}, {},
  {}, {}, {},
  {}, {}, {},
  {}, {}, {},
  {}, {}, {},
  {}, {}, {},
  {}, {}, {},
  {}, {}, {},
  {}, {}, {},
  {}, {}, {},
  {}, {}, {},
  {}, {}, {},
  {}, {}, {},
  {}, {}, {},
  {}, {}, {},
  {}, {}, {},
  {}, {}, {},
  {}, {}, {},
  {}, {}, {},
  {}, {}, {},
  {}, {}, {},
  {}, {}, {},
  {}, {}, {},
  {}, {}, {},
  {}, {}, {},
  {}, {}, {},
  {}, {}, {},
  {}, {}, {},
  {}, {}, {},
  {}, {}, {},
  {}, {}, {},
  {}, {}, {},
  {}, {}, {},
  {}, {}, {},
  {}, {}, {},
  {}, {}, {},
  {}, {}, {},
  {}, {}, {},
  {}, {}, {},
  {}, {}, {},
  {}, {}, {},
  {}, {}, {},
  {}, {}, {},
  {}, {}, {},
  {}, {}, {},
  {}, {}, {},
  {}, {}, {},
  {}, {}, {},
  {}, {}, {},
  {}, {}, {},
  {}, {}, {},
  {}, {}, {},
  {}, {}, {},
  {}, {}, {},
  {}, {}, {},
  {}, {}, {},
  {}, {}, {},
  {}, {}, {},
  {}, {}, {},
  {}, {}, {},
  {}, {}, {},
  {}, {}, {},
  {}, {}, {},
  {}, {}, {},
  {}, {}, {},
  {}, {}, {},
  {}, {}, {},
  {}, {}, {},
  {}, {}, {},
  {}, {}, {},
  {}, {}, {},
  {}, {}, {},
  {}, {}, {},
  {}, {}, {},
  {}, {}, {},
  {}, {}, {},
  {}, {}, {},
  {}, {}, {},
  {}, {}, {},
  {}, {}, {},
  {}, {}, {},
  {}, {}, {},
  {}, {}, {},
  {}, {}, {},
  {}, {}, {},
  {}, {}, {},
  {}, {}, {},
  {}, {}, {},
  {}, {}, {},
  {}, {}, {},
  {}, {}, {},
  {}, {}, {},
  {}, {}, {},
  {}, {}, {},
  {}, {}, {},
  {}, {}, {},
  {}, {}, {},
  {}, {}, {},
  {}, {}, {},
  {}, {}, {},
  {}, {}, {},
  {}, {}, {},
  {}, {}, {},
  {}, {}, {},
  {}, {}, {},
  {}, {}, {},
  {}, {}, {},
  {}, {}, {},
  {}, {}, {},
  {}, {}, {},
  {}, {}, {},
  {}, {}, {},
  {}, {}, {},
  {}, {}, {},
  {}, {}, {},
  {}, {}, {},
  {}, {}, {},
  {}, {}, {},
  {}, {}, {},
  {}, {}, {},
  {}, {}, {},
  {}, {}, {},
  {}, {}, {},
  {}, {}, {},
  {}, {}, {},
  {}, {}, {},
  {}, {}, {},
  {}, {}, {},
  {}, {}, {},
  {}, {}, {},
  {}, {}, {},
  {}, {}, {},
  {}, {}, {},
  {}, {}, {},
  {}, {}, {},
  {}, {}, {},
  {}, {}, {},
  {}, {}, {},
  {}, {}, {},
  {}, {}, {},
  {}, {}, {},
  {}, {}, {},
  {}, {}, {},
  {}, {}, {},
  {}, {}, {},
  {}, {}, {},
  {}, {}, {},
  {}, {}, {},
  {}, {}, {},
  {}, {}, {},
  {}, {}, {},
  {}, {}, {},
  {}, {}, {},
  {}, {}, {},
  {}, {}, {},
  {}, {}, {},
  {}, {}, {},
  {}, {}, {},
  {}, {}, {},
  {}, {}, {},
  {}, {}, {},
  {}, {}, {},
  {}, {}, {},
  {}, {}, {},
  {}, {}, {},
  {}, {}, {},
  {}, {}, {},
  {}, {}, {},
  {}, {}, {},
  {}, {}, {},
  {}, {}, {},
  {}, {}, {},
  {}, {}, {},
  {}, {}, {},
  {}, {}, {},
  {}, {}, {},
  {}, {}, {},
  {}, {}, {},
  {}, {}, {},
  {}, {}, {},
  {}, {}, {},
  {}, {}, {},
  {}, {}, {},
  {}, {}, {},
  {}, {}, {},
  {}, {}, {},
  {}, {}, {},
  {}, {}, {},
  {}, {}, {},
  {}, {}, {},
  {}, {}, {},
  {}, {}, {},
  {}, {}, {},
  {}, {}, {},
  {}, {}, {},
  {}, {}, {},
  {}, {}, {},
  {}, {}, {},
  {}, {}, {},
  {}, {}, {},
  {}, {}, {},
  {}, {}, {},
  {}, {}, {},
  {}, {}, {},
  {}, {}, {},
  {}, {}, {},
  {}, {}, {},
  {}, {}, {},
  {}, {}, {},
  {}, {}, {},
  {}, {}, {},
  {}, {}, {},
  {}, {}, {},
  {}, {}, {},
  {}, {}, {},
  {}, {}, {},
  {}, {}, {},
  {}, {}, {},
  {}, {}, {},
  {}, {}, {},
  {}, {}, {},
  {}, {}, {},
  {}, {}, {},
  {}, {}, {},
  {}, {}, {},
  {}, {}, {},
  {}, {}, {},
  {}, {}, {},
  {}, {}, {},
  {}, {}, {},
  {}, {}, {},
  {}, {}, {},
  {}, {}, {},
  {}, {}, {},
  {}, {}, {},
  {}, {}, {},
  {}, {}, {},
  {}, {}, {},
  {}, {}, {},
  {}, {}, {},
  {}, {}, {},
  {}, {}, {},
  {}, {}, {},
  {}, {}, {},
  {}, {}, {},
  {}, {}, {},
  {}, {}, {},
  {}, {}, {},
  {}, {}, {},
  {}, {}, {},
  {}, {}, {},
  {}, {}, {},
  {}, {}, {},
  {}, {}, {},
  {}, {}, {},
  {}, {}, {},
  {}, {}, {},
  {}, {}, {},
  {}, {}, {},
  {}, {}, {},
  {}, {}, {},
  {}, {}, {},
  {}, {}, {},
  {}, {}, {},
  {}, {}, {},
  {}, {}, {},
  {}, {}, {},
  {}, {}, {},
  {}, {}, {},
  {}, {}, {},
  {}, {}, {},
  {}, {}, {},
  {}, {}, {},
  {}, {}, {},
  {}, {}, {},
  {}, {}, {},
  {}, {}, {},
  {}, {}, {},
  {}, {}, {},
  {}, {}, {},
  {}, {}, {},
  {}, {}, {},
  {}, {}, {},
  {}, {}, {},
  {}, {}, {},
  {}, {}, {},
  {}, {}, {},
  {}, {}, {},
  {}, {}, {},
  {}, {}, {},
  {}, {}, {},
  {}, {}, {},
  {}, {}, {},
  {}, {}, {},
  {}, {}, {},
  {}, {}, {},
  {}, {}, {},
  {}, {}, {},
  {}, {}, {},
  {}, {}, {},
  {}, {}, {},
  {}, {}, {},
  {}, {}, {},
  {}, {}, {},
  {}, {}, {},
  {}, {}, {},
  {}, {}, {},
  {}, {}, {},
  {}, {}, {},
  {}, {}, {},
  {}, {}, {},
  {}, {}, {},
  {}, {}, {},
  {}, {}, {},
  {}, {}, {},
  {}, {}, {},
  {}, {}, {},
  {}, {}, {},
  {}, {}, {},
  {}, {}, {},
  {}, {}, {},
  {}, {}, {},
  {}, {}, {},
  {}, {}, {},
  {}, {}, {},
  {}, {}, {},
  {}, {}, {},
  {}, {}, {},
  {}, {}, {},
  {}, {}, {},
  {}, {}, {},
  {}, {}, {},
  {}, {}, {},
  {}, {}, {},
  {}, {}, {},
  {}, {}, {},
  {}, {}, {},
  {}, {}, {},
  {}, {}, {},
  {}, {}, {},
  {}, {}, {},
  {}, {}, {},
  {}, {}, {},
  {}, {}, {},
  {}, {}, {},
  {}, {}, {},
  {}, {}, {},
  {}, {}, {},
  {}, {}, {},
  {}, {}, {},
  {}, {}, {},
  {}, {}, {},
  {}, {}, {},
  {}, {}, {},
  {}, {}, {},
  {}, {}, {},
  {}, {}, {},
  {}, {}, {},
  {}, {}, {},
  {}, {}, {},
  {}, {}, {},
  {}, {}, {},
  {}, {}, {},
  {}, {}, {},
  {}, {}, {},
  {}, {}, {}
]);
